p cnf 50 25
-19 -25 -38 0
-5 -10 22 0
-18 -27 14 0
-14 33 -35 0
7 -37 -49 0
22 5 -43 0
-45 -30 3 0
38 -13 -15 0
13 27 -19 0
-25 -34 33 0
30 -14 21 0
47 -7 -12 0
-36 43 24 0
39 20 10 0
50 25 -34 0
43 5 -27 0
-18 -31 12 0
44 20 -25 0
-36 50 -45 0
-47 -37 2 0
-2 49 17 0
31 -23 -37 0
46 -47 35 0
-35 33 -47 0
1 21 13 0
